language ESSENCE' 1.0

letting boxes_PartitionAsSet_ExplicitR5_ExplicitVarSizeWithMarker_Marker be [1, 1, 1, 1, 1; int(1..5)]
letting boxes_PartitionAsSet_ExplicitR5_ExplicitVarSizeWithMarker_Values be
        [[1, 1, 1, 1, 1; int(1..5)], [2, 1, 1, 1, 1; int(1..5)], [3, 1, 1, 1, 1; int(1..5)], [4, 1, 1, 1, 1; int(1..5)],
         [5, 1, 1, 1, 1; int(1..5)];
             int(1..5)]
$ Visualisation for boxes_PartitionAsSet_ExplicitR5_ExplicitVarSizeWithMarker_Values
$ 1 1 1 1 1
$ 2 1 1 1 1
$ 3 1 1 1 1
$ 4 1 1 1 1
$ 5 1 1 1 1

